(set-logic QF_LIRA)
(declare-fun v!31 () Int)
(declare-fun t!27 () Real)
(declare-fun t!26 () Real)
(declare-fun t!28 () Real)
(declare-fun t!29 () Real)
(declare-fun t!23 () Real)
(declare-fun t!22 () Real)
(declare-fun t!24 () Real)
(declare-fun t!25 () Real)
(declare-fun t!19 () Real)
(declare-fun t!18 () Real)
(declare-fun t!20 () Real)
(declare-fun t!21 () Real)
(declare-fun t!15 () Real)
(declare-fun t!14 () Real)
(declare-fun t!16 () Real)
(declare-fun t!17 () Real)
(declare-fun t!11 () Real)
(declare-fun t!10 () Real)
(declare-fun t!12 () Real)
(declare-fun t!13 () Real)
(declare-fun t!7 () Real)
(declare-fun t!6 () Real)
(declare-fun t!8 () Real)
(declare-fun t!9 () Real)
(declare-fun t!3 () Real)
(declare-fun t!2 () Real)
(declare-fun t!4 () Real)
(declare-fun t!5 () Real)
(declare-fun t!1 () Real)
(declare-fun t!0 () Real)
(declare-fun t!30 () Real)
(declare-fun s!30 () Real)
(declare-fun s!3 () Real)
(declare-fun s!7 () Real)
(declare-fun s!11 () Real)
(declare-fun s!15 () Real)
(declare-fun s!19 () Real)
(declare-fun s!23 () Real)
(declare-fun s!27 () Real)
(declare-fun rf!30 () Real)
(declare-fun v!4 () Int)
(declare-fun rf!3 () Real)
(declare-fun v!8 () Int)
(declare-fun v!12 () Int)
(declare-fun v!16 () Int)
(declare-fun v!20 () Int)
(declare-fun v!24 () Int)
(declare-fun v!28 () Int)
(declare-fun rf!7 () Real)
(declare-fun rf!11 () Real)
(declare-fun rf!15 () Real)
(declare-fun rf!19 () Real)
(declare-fun rf!23 () Real)
(declare-fun rf!27 () Real)
(assert (and true (< 6 v!31)))
(assert (< 0 t!27))
(assert (< 0 t!26))
(assert (< 0 t!28))
(assert (< 0 t!29))
(assert (< 0 t!23))
(assert (< 0 t!22))
(assert (< 0 t!24))
(assert (< 0 t!25))
(assert (< 0 t!19))
(assert (< 0 t!18))
(assert (< 0 t!20))
(assert (< 0 t!21))
(assert (< 0 t!15))
(assert (< 0 t!14))
(assert (< 0 t!16))
(assert (< 0 t!17))
(assert (< 0 t!11))
(assert (< 0 t!10))
(assert (< 0 t!12))
(assert (< 0 t!13))
(assert (< 0 t!7))
(assert (< 0 t!6))
(assert (< 0 t!8))
(assert (< 0 t!9))
(assert (< 0 t!3))
(assert (< 0 t!2))
(assert (< 0 t!4))
(assert (< 0 t!5))
(assert (< 0 t!1))
(assert (< 0 t!0))
(assert (< 0 t!30))
(assert (and (and (and (and (and (and (and (and (and (and (and (and (and (and (and (and (and (and (and (and (and (and (and (and (and (and (and (and (and (and true (< t!26 t!27)) (< t!27 t!28)) (< t!28 t!29)) (< t!22 t!23)) (< t!23 t!24)) (< t!24 t!25)) (< t!18 t!19)) (< t!19 t!20)) (< t!20 t!21)) (< t!14 t!15)) (< t!15 t!16)) (< t!16 t!17)) (< t!10 t!11)) (< t!11 t!12)) (< t!12 t!13)) (< t!6 t!7)) (< t!7 t!8)) (< t!8 t!9)) (< t!2 t!3)) (< t!3 t!4)) (< t!4 t!5)) (< t!0 t!1)) (< t!1 t!2)) (< t!2 t!6)) (< t!6 t!10)) (< t!10 t!14)) (< t!14 t!18)) (< t!18 t!22)) (< t!22 t!26)) (< t!26 t!30)))
(assert (< 0 s!30))
(assert (< 0 s!3))
(assert (< 0 s!7))
(assert (< 0 s!11))
(assert (< 0 s!15))
(assert (< 0 s!19))
(assert (< 0 s!23))
(assert (< 0 s!27))
(assert (let ((_let_0 (= 1 rf!30))) (let ((_let_1 (and true true))) (let ((_let_2 (<= t!1 t!30))) (let ((_let_3 (= 4 rf!30))) (let ((_let_4 (<= t!4 t!30))) (let ((_let_5 (= 0 rf!3))) (let ((_let_6 (<= t!0 t!3))) (let ((_let_7 (= 8 rf!3))) (let ((_let_8 (<= t!8 t!3))) (let ((_let_9 (+ v!8 1))) (let ((_let_10 (= 12 rf!3))) (let ((_let_11 (<= t!12 t!3))) (let ((_let_12 (+ v!12 1))) (let ((_let_13 (= 16 rf!3))) (let ((_let_14 (<= t!16 t!3))) (let ((_let_15 (+ v!16 1))) (let ((_let_16 (= 20 rf!3))) (let ((_let_17 (<= t!20 t!3))) (let ((_let_18 (+ v!20 1))) (let ((_let_19 (= 24 rf!3))) (let ((_let_20 (<= t!24 t!3))) (let ((_let_21 (+ v!24 1))) (let ((_let_22 (= 28 rf!3))) (let ((_let_23 (<= t!28 t!3))) (let ((_let_24 (+ v!28 1))) (let ((_let_25 (= 0 rf!7))) (let ((_let_26 (<= t!0 t!7))) (let ((_let_27 (= 8 rf!7))) (let ((_let_28 (<= t!8 t!7))) (let ((_let_29 (= 12 rf!7))) (let ((_let_30 (<= t!12 t!7))) (let ((_let_31 (= 16 rf!7))) (let ((_let_32 (<= t!16 t!7))) (let ((_let_33 (= 20 rf!7))) (let ((_let_34 (<= t!20 t!7))) (let ((_let_35 (= 24 rf!7))) (let ((_let_36 (<= t!24 t!7))) (let ((_let_37 (= 28 rf!7))) (let ((_let_38 (<= t!28 t!7))) (let ((_let_39 (= 0 rf!11))) (let ((_let_40 (<= t!0 t!11))) (let ((_let_41 (= 8 rf!11))) (let ((_let_42 (<= t!8 t!11))) (let ((_let_43 (= 12 rf!11))) (let ((_let_44 (<= t!12 t!11))) (let ((_let_45 (= 16 rf!11))) (let ((_let_46 (<= t!16 t!11))) (let ((_let_47 (= 20 rf!11))) (let ((_let_48 (<= t!20 t!11))) (let ((_let_49 (= 24 rf!11))) (let ((_let_50 (<= t!24 t!11))) (let ((_let_51 (= 28 rf!11))) (let ((_let_52 (<= t!28 t!11))) (let ((_let_53 (= 0 rf!15))) (let ((_let_54 (<= t!0 t!15))) (let ((_let_55 (= 8 rf!15))) (let ((_let_56 (<= t!8 t!15))) (let ((_let_57 (= 12 rf!15))) (let ((_let_58 (<= t!12 t!15))) (let ((_let_59 (= 16 rf!15))) (let ((_let_60 (<= t!16 t!15))) (let ((_let_61 (= 20 rf!15))) (let ((_let_62 (<= t!20 t!15))) (let ((_let_63 (= 24 rf!15))) (let ((_let_64 (<= t!24 t!15))) (let ((_let_65 (= 28 rf!15))) (let ((_let_66 (<= t!28 t!15))) (let ((_let_67 (= 0 rf!19))) (let ((_let_68 (<= t!0 t!19))) (let ((_let_69 (= 8 rf!19))) (let ((_let_70 (<= t!8 t!19))) (let ((_let_71 (= 12 rf!19))) (let ((_let_72 (<= t!12 t!19))) (let ((_let_73 (= 16 rf!19))) (let ((_let_74 (<= t!16 t!19))) (let ((_let_75 (= 20 rf!19))) (let ((_let_76 (<= t!20 t!19))) (let ((_let_77 (= 24 rf!19))) (let ((_let_78 (<= t!24 t!19))) (let ((_let_79 (= 28 rf!19))) (let ((_let_80 (<= t!28 t!19))) (let ((_let_81 (= 0 rf!23))) (let ((_let_82 (<= t!0 t!23))) (let ((_let_83 (= 8 rf!23))) (let ((_let_84 (<= t!8 t!23))) (let ((_let_85 (= 12 rf!23))) (let ((_let_86 (<= t!12 t!23))) (let ((_let_87 (= 16 rf!23))) (let ((_let_88 (<= t!16 t!23))) (let ((_let_89 (= 20 rf!23))) (let ((_let_90 (<= t!20 t!23))) (let ((_let_91 (= 24 rf!23))) (let ((_let_92 (<= t!24 t!23))) (let ((_let_93 (= 28 rf!23))) (let ((_let_94 (<= t!28 t!23))) (let ((_let_95 (= 0 rf!27))) (let ((_let_96 (<= t!0 t!27))) (let ((_let_97 (= 8 rf!27))) (let ((_let_98 (<= t!8 t!27))) (let ((_let_99 (= 12 rf!27))) (let ((_let_100 (<= t!12 t!27))) (let ((_let_101 (= 16 rf!27))) (let ((_let_102 (<= t!16 t!27))) (let ((_let_103 (= 20 rf!27))) (let ((_let_104 (<= t!20 t!27))) (let ((_let_105 (= 24 rf!27))) (let ((_let_106 (<= t!24 t!27))) (let ((_let_107 (= 28 rf!27))) (let ((_let_108 (<= t!28 t!27))) (and (and (and (and (and (and (and (and (and (and (and (and (and (and (and (and (and (and (and (and (and (and (and (and (and (and (and (and (and (and (and (and (and (and (and (and (and (and (and (and (and (and (and (and (and (and (and (and (and (and (and (and (and (and (and (and (and (and (and (and (and (and (and (and (and (and (and (and (and (and (and (and (and (and (and (and (and (and (and (and (and (and (and (and (and (and (and (and (and (and (and (and (and (and (and (and (and (and (and (and (and (and (and (and (and (and (and (and (and (and true (=> _let_0 (and (and (and _let_1 _let_2) (= 0 v!31)) (= s!30 t!1)))) (=> (and _let_2 true) (<= t!1 s!30))) (=> _let_3 (and (and (and _let_1 _let_4) (= v!4 v!31)) (= s!30 t!4)))) (=> (and _let_4 true) (<= t!4 s!30))) (=> true (or _let_3 (or _let_0 false)))) (=> _let_5 (and (and (and _let_1 _let_6) (= 0 v!4)) (= s!3 t!0)))) (=> (and _let_6 true) (<= t!0 s!3))) (=> _let_7 (and (and (and _let_1 _let_8) (= _let_9 v!4)) (= s!3 t!8)))) (=> (and _let_8 true) (<= t!8 s!3))) (=> _let_10 (and (and (and _let_1 _let_11) (= _let_12 v!4)) (= s!3 t!12)))) (=> (and _let_11 true) (<= t!12 s!3))) (=> _let_13 (and (and (and _let_1 _let_14) (= _let_15 v!4)) (= s!3 t!16)))) (=> (and _let_14 true) (<= t!16 s!3))) (=> _let_16 (and (and (and _let_1 _let_17) (= _let_18 v!4)) (= s!3 t!20)))) (=> (and _let_17 true) (<= t!20 s!3))) (=> _let_19 (and (and (and _let_1 _let_20) (= _let_21 v!4)) (= s!3 t!24)))) (=> (and _let_20 true) (<= t!24 s!3))) (=> _let_22 (and (and (and _let_1 _let_23) (= _let_24 v!4)) (= s!3 t!28)))) (=> (and _let_23 true) (<= t!28 s!3))) (=> true (or _let_22 (or _let_19 (or _let_16 (or _let_13 (or _let_10 (or _let_7 (or _let_5 false))))))))) (=> _let_25 (and (and (and _let_1 _let_26) (= 0 v!8)) (= s!7 t!0)))) (=> (and _let_26 true) (<= t!0 s!7))) (=> _let_27 (and (and (and _let_1 _let_28) (= _let_9 v!8)) (= s!7 t!8)))) (=> (and _let_28 true) (<= t!8 s!7))) (=> _let_29 (and (and (and _let_1 _let_30) (= _let_12 v!8)) (= s!7 t!12)))) (=> (and _let_30 true) (<= t!12 s!7))) (=> _let_31 (and (and (and _let_1 _let_32) (= _let_15 v!8)) (= s!7 t!16)))) (=> (and _let_32 true) (<= t!16 s!7))) (=> _let_33 (and (and (and _let_1 _let_34) (= _let_18 v!8)) (= s!7 t!20)))) (=> (and _let_34 true) (<= t!20 s!7))) (=> _let_35 (and (and (and _let_1 _let_36) (= _let_21 v!8)) (= s!7 t!24)))) (=> (and _let_36 true) (<= t!24 s!7))) (=> _let_37 (and (and (and _let_1 _let_38) (= _let_24 v!8)) (= s!7 t!28)))) (=> (and _let_38 true) (<= t!28 s!7))) (=> true (or _let_37 (or _let_35 (or _let_33 (or _let_31 (or _let_29 (or _let_27 (or _let_25 false))))))))) (=> _let_39 (and (and (and _let_1 _let_40) (= 0 v!12)) (= s!11 t!0)))) (=> (and _let_40 true) (<= t!0 s!11))) (=> _let_41 (and (and (and _let_1 _let_42) (= _let_9 v!12)) (= s!11 t!8)))) (=> (and _let_42 true) (<= t!8 s!11))) (=> _let_43 (and (and (and _let_1 _let_44) (= _let_12 v!12)) (= s!11 t!12)))) (=> (and _let_44 true) (<= t!12 s!11))) (=> _let_45 (and (and (and _let_1 _let_46) (= _let_15 v!12)) (= s!11 t!16)))) (=> (and _let_46 true) (<= t!16 s!11))) (=> _let_47 (and (and (and _let_1 _let_48) (= _let_18 v!12)) (= s!11 t!20)))) (=> (and _let_48 true) (<= t!20 s!11))) (=> _let_49 (and (and (and _let_1 _let_50) (= _let_21 v!12)) (= s!11 t!24)))) (=> (and _let_50 true) (<= t!24 s!11))) (=> _let_51 (and (and (and _let_1 _let_52) (= _let_24 v!12)) (= s!11 t!28)))) (=> (and _let_52 true) (<= t!28 s!11))) (=> true (or _let_51 (or _let_49 (or _let_47 (or _let_45 (or _let_43 (or _let_41 (or _let_39 false))))))))) (=> _let_53 (and (and (and _let_1 _let_54) (= 0 v!16)) (= s!15 t!0)))) (=> (and _let_54 true) (<= t!0 s!15))) (=> _let_55 (and (and (and _let_1 _let_56) (= _let_9 v!16)) (= s!15 t!8)))) (=> (and _let_56 true) (<= t!8 s!15))) (=> _let_57 (and (and (and _let_1 _let_58) (= _let_12 v!16)) (= s!15 t!12)))) (=> (and _let_58 true) (<= t!12 s!15))) (=> _let_59 (and (and (and _let_1 _let_60) (= _let_15 v!16)) (= s!15 t!16)))) (=> (and _let_60 true) (<= t!16 s!15))) (=> _let_61 (and (and (and _let_1 _let_62) (= _let_18 v!16)) (= s!15 t!20)))) (=> (and _let_62 true) (<= t!20 s!15))) (=> _let_63 (and (and (and _let_1 _let_64) (= _let_21 v!16)) (= s!15 t!24)))) (=> (and _let_64 true) (<= t!24 s!15))) (=> _let_65 (and (and (and _let_1 _let_66) (= _let_24 v!16)) (= s!15 t!28)))) (=> (and _let_66 true) (<= t!28 s!15))) (=> true (or _let_65 (or _let_63 (or _let_61 (or _let_59 (or _let_57 (or _let_55 (or _let_53 false))))))))) (=> _let_67 (and (and (and _let_1 _let_68) (= 0 v!20)) (= s!19 t!0)))) (=> (and _let_68 true) (<= t!0 s!19))) (=> _let_69 (and (and (and _let_1 _let_70) (= _let_9 v!20)) (= s!19 t!8)))) (=> (and _let_70 true) (<= t!8 s!19))) (=> _let_71 (and (and (and _let_1 _let_72) (= _let_12 v!20)) (= s!19 t!12)))) (=> (and _let_72 true) (<= t!12 s!19))) (=> _let_73 (and (and (and _let_1 _let_74) (= _let_15 v!20)) (= s!19 t!16)))) (=> (and _let_74 true) (<= t!16 s!19))) (=> _let_75 (and (and (and _let_1 _let_76) (= _let_18 v!20)) (= s!19 t!20)))) (=> (and _let_76 true) (<= t!20 s!19))) (=> _let_77 (and (and (and _let_1 _let_78) (= _let_21 v!20)) (= s!19 t!24)))) (=> (and _let_78 true) (<= t!24 s!19))) (=> _let_79 (and (and (and _let_1 _let_80) (= _let_24 v!20)) (= s!19 t!28)))) (=> (and _let_80 true) (<= t!28 s!19))) (=> true (or _let_79 (or _let_77 (or _let_75 (or _let_73 (or _let_71 (or _let_69 (or _let_67 false))))))))) (=> _let_81 (and (and (and _let_1 _let_82) (= 0 v!24)) (= s!23 t!0)))) (=> (and _let_82 true) (<= t!0 s!23))) (=> _let_83 (and (and (and _let_1 _let_84) (= _let_9 v!24)) (= s!23 t!8)))) (=> (and _let_84 true) (<= t!8 s!23))) (=> _let_85 (and (and (and _let_1 _let_86) (= _let_12 v!24)) (= s!23 t!12)))) (=> (and _let_86 true) (<= t!12 s!23))) (=> _let_87 (and (and (and _let_1 _let_88) (= _let_15 v!24)) (= s!23 t!16)))) (=> (and _let_88 true) (<= t!16 s!23))) (=> _let_89 (and (and (and _let_1 _let_90) (= _let_18 v!24)) (= s!23 t!20)))) (=> (and _let_90 true) (<= t!20 s!23))) (=> _let_91 (and (and (and _let_1 _let_92) (= _let_21 v!24)) (= s!23 t!24)))) (=> (and _let_92 true) (<= t!24 s!23))) (=> _let_93 (and (and (and _let_1 _let_94) (= _let_24 v!24)) (= s!23 t!28)))) (=> (and _let_94 true) (<= t!28 s!23))) (=> true (or _let_93 (or _let_91 (or _let_89 (or _let_87 (or _let_85 (or _let_83 (or _let_81 false))))))))) (=> _let_95 (and (and (and _let_1 _let_96) (= 0 v!28)) (= s!27 t!0)))) (=> (and _let_96 true) (<= t!0 s!27))) (=> _let_97 (and (and (and _let_1 _let_98) (= _let_9 v!28)) (= s!27 t!8)))) (=> (and _let_98 true) (<= t!8 s!27))) (=> _let_99 (and (and (and _let_1 _let_100) (= _let_12 v!28)) (= s!27 t!12)))) (=> (and _let_100 true) (<= t!12 s!27))) (=> _let_101 (and (and (and _let_1 _let_102) (= _let_15 v!28)) (= s!27 t!16)))) (=> (and _let_102 true) (<= t!16 s!27))) (=> _let_103 (and (and (and _let_1 _let_104) (= _let_18 v!28)) (= s!27 t!20)))) (=> (and _let_104 true) (<= t!20 s!27))) (=> _let_105 (and (and (and _let_1 _let_106) (= _let_21 v!28)) (= s!27 t!24)))) (=> (and _let_106 true) (<= t!24 s!27))) (=> _let_107 (and (and (and _let_1 _let_108) (= _let_24 v!28)) (= s!27 t!28)))) (=> (and _let_108 true) (<= t!28 s!27))) (=> true (or _let_107 (or _let_105 (or _let_103 (or _let_101 (or _let_99 (or _let_97 (or _let_95 false)))))))))))))))))))))))))))))))))))))))))))))))))))))))))))))))))))))))))))))))))))))))))))))))))))))))))))))))))))))))
(assert (and (and true (distinct t!1 t!4)) (distinct t!0 t!8 t!12 t!16 t!20 t!24 t!28)))
(check-sat)
